%nproc=18
%mem=70GB
%chk=TNA_Nitroso_Azodioxy.chk
#P PBE1PBE/6-311++G(d,p) opt SCF=YQC NoSymm

Comment

0 1
 C    3.958160000000000    4.907960000000000    1.597480000000000
 C    -3.692310000000000    -1.471820000000000    4.306670000000000
 C    3.984990000000000    -4.645510000000000    -1.773800000000000
 C    -3.846630000000000    1.958580000000000    -4.665260000000000
 C    2.795980000000000    4.564120000000000    2.301930000000000
 C    -2.678010000000000    -2.334090000000000    3.861190000000001
 C    2.841420000000000    -4.319980000000000    -2.522970000000000
 C    -2.833910000000000    2.820930000000000    -4.214410000000000
 C    1.909540000000000    3.479720000000000    1.890090000000000
 C    -1.708970000000000    -1.972030000000000    2.837070000000000
 C    1.947380000000000    -3.185680000000000    -2.211150000000000
 C    -1.819240000000000    2.437430000000000    -3.222670000000000
 C    2.121740000000000    2.675390000000000    0.737550000000000
 C    -1.691110000000000    -0.713870000000000    2.191350000000000
 C    2.137730000000000    -2.297040000000000    -1.120840000000000
 C    -1.748550000000000    1.157230000000000    -2.615820000000000
 C    3.282860000000000    3.054080000000000    0.024200000000000
 C    -2.696070000000000    0.157460000000000    2.659750000000000
 C    3.280830000000000    -2.641760000000000    -0.366380000000000
 C    -2.765970000000000    0.296040000000000    -3.077640000000000
 C    4.171740000000000    4.115120000000000    0.449910000000000
 C    -3.650530000000000    -0.209760000000000    3.670340000000000
 C    4.162530000000000    -3.751060000000000    -0.688240000000000
 C    -3.762920000000000    0.683410000000000    -4.052380000000000
 H    2.590320000000000    5.122600000000000    3.212330000000000
 H    -2.629240000000000    -3.323930000000000    4.308000000000000
 H    2.614770000000000    -4.945320000000000    -3.383920000000000
 H    -2.814480000000000    3.827630000000000    -4.625400000000001
 H    1.057030000000000    3.296570000000000    2.538270000000000
 H    -0.987970000000000    -2.739200000000000    2.568260000000000
 H    1.094930000000000    -3.058060000000000    -2.873400000000000
 H    -1.109010000000000    3.212850000000000    -2.946530000000000
 H    3.561280000000000    2.530220000000000    -0.884790000000000
 H    -2.798730000000000    1.154480000000000    2.240030000000000
 H    3.546010000000000    -2.074270000000000    0.521020000000000
 H    -2.854210000000001    -0.710500000000000    -2.677340000000000
 H    5.070630000000000    4.325060000000000    -0.123640000000000
 H    -4.411480000000000    0.517840000000000    3.941850000000000
 H    5.014429999999999    -3.923880000000000    -0.033980000000000
 H    -4.525570000000000    -0.047530000000000    -4.312430000000000
 N    4.980160000000000    5.881180000000000    2.041240000000000
 N    4.708940000000000    7.251250000000000    2.554380000000000
 C    5.713690000000000    8.281110000000000    2.885020000000000
 C    5.315440000000000    9.597440000000001    3.258600000000000
 C    6.224770000000000    10.620260000000000    3.606690000000000
 C    7.586590000000000    10.366910000000003    3.612860000000000
 C    8.026230000000000    9.094350000000000    3.255490000000000
 C    7.102500000000000    8.084030000000000    2.890320000000000
 H    4.254500000000000    9.826219999999999    3.274530000000000
 H    5.842970000000000    11.601419999999999    3.871280000000000
 H    8.295159999999999    11.139930000000001    3.888520000000000
 H    9.084500000000000    8.861350000000000    3.255170000000000
 H    7.497970000000000    7.116110000000000    2.606290000000000
 N    -4.702150000000000    -1.790110000000000    5.336890000000000
 N    -5.192590000000000    -3.124680000000000    5.723810000000000
 C    -6.199720000000000    -3.363630000000000    6.756190000000000
 C    -7.258190000000000    -4.284600000000000    6.561760000000000
 C    -8.223430000000000    -4.556060000000000    7.547330000000001
 C    -8.155210000000000    -3.915110000000000    8.778230000000001
 C    -7.124080000000000    -3.004480000000000    9.010360000000000
 C    -6.162610000000000    -2.738650000000000    8.012400000000000
 H    -7.331960000000000    -4.774000000000000    5.594850000000000
 H    -9.019180000000002    -5.258480000000000    7.327090000000000
 H    -8.899699999999999    -4.112450000000000    9.540630000000000
 H    -7.058060000000000    -2.481550000000000    9.957070000000000
 H    -5.365420000000000    -2.023420000000000    8.193930000000000
 N    4.949420000000000    -5.750480000000000    -2.045450000000000
 N    4.712570000000000    -7.023470000000000    -2.785160000000000
 C    5.708770000000000    -8.086900000000000    -3.010320000000000
 C    5.336530000000000    -9.461860000000000    -3.012150000000000
 C    6.251650000000000    -10.508160000000000    -3.261380000000000
 C    7.579190000000000    -10.224130000000001    -3.527930000000000
 C    7.989110000000000    -8.887490000000000    -3.541900000000000
 C    7.060620000000000    -7.846380000000000    -3.290560000000000
 H    4.305440000000000    -9.710279999999999    -2.790850000000000
 H    5.898610000000000    -11.536420000000000    -3.234390000000000
 H    8.290740000000000    -11.021699999999999    -3.716630000000000
 H    9.023170000000000    -8.639620000000001    -3.739730000000000
 H    7.399900000000000    -6.812920000000000    -3.313180000000000
 N    -4.891200000000000    2.271270000000000    -5.674020000000000
 N    -5.396800000000000    3.601940000000000    -6.093710000000000
 C    -6.433100000000000    3.818090000000000    -7.112609999999999
 C    -7.475660000000000    4.762620000000000    -6.931680000000000
 C    -8.460240000000001    5.017590000000000    -7.907390000000000
 C    -8.430080000000000    4.336310000000000    -9.118300000000000
 C    -7.418080000000000    3.402710000000000    -9.338350000000000
 C    -6.437690000000000    3.153220000000000    -8.350510000000000
 H    -7.523650000000000    5.290050000000000    -5.983160000000000
 H    -9.240780000000001    5.740520000000000    -7.697690000000001
 H    -9.186690000000000    4.521639999999999    -9.872590000000001
 H    -7.380110000000000    2.849560000000000    -10.270149999999999
 H    -5.656200000000000    2.421540000000000    -8.531150000000000
 O    6.113960000000000    5.232290000000000    2.609410000000000
 O    3.414750000000000    7.758150000000000    2.261640000000000
 O    3.363510000000000    -7.407920000000000    -2.969300000000000
 O    6.195420000000000    -5.678660000000000    -1.354400000000000
 O    -5.595610000000000    1.155960000000000    -6.219440000000000
 O    -5.221450000000000    4.668320000000000    -5.178320000000000
 O    -5.049920000000000    -4.162630000000000    4.769360000000000
 O    -5.408690000000000    -0.684990000000000    5.900160000000000
 C    1.173120000000000    -1.046500000000000    -0.711600000000000
 C    0.224580000000000    -0.511440000000000    -1.877700000000000
 C    -0.717460000000000    0.702550000000000    -1.452030000000000
 H    0.840670000000000    -0.202760000000000    -2.732690000000000
 H    -0.402770000000000    -1.338540000000000    -2.233700000000000
 C    -1.554600000000000    0.207400000000000    -0.217660000000000
 C    -0.702040000000000    -0.285910000000000    1.006160000000000
 H    -2.215430000000000    1.029430000000000    0.087510000000000
 H    -2.219720000000000    -0.613670000000000    -0.515500000000000
 C    0.232120000000000    -1.452640000000000    0.488530000000000
 H    0.851520000000000    -1.811200000000000    1.321890000000000
 H    -0.387330000000000    -2.305240000000000    0.177900000000000
 C    2.021680000000000    0.203090000000000    -0.223240000000000
 C    0.228810000000000    1.864520000000000    -0.929050000000000
 C    1.170610000000000    1.445500000000000    0.270490000000000
 H    0.846870000000000    2.225390000000000    -1.762030000000000
 H    -0.385030000000000    2.718010000000000    -0.610000000000000
 C    0.233390000000000    0.911670000000000    1.430150000000000
 H    2.682120000000000    -0.089950000000000    0.602230000000000
 H    2.680070000000000    0.501440000000000    -1.048670000000000
 H    0.850430000000000    0.600540000000000    2.284480000000000
 H    -0.393430000000000    1.737380000000000    1.790480000000000




